p cnf 419
-6 -132
-7 -135
-8 -138
-9 -141
-10 -144
-11 145
-12 146
-13 147
-14 148
-15 149
-16 -7
-16 -8
7 8 16
-17 -9
-17 -10
9 10 17
-18 -11
-18 -12
11 12 18
-19 -13
-19 -14
13 14 19
-20 16
-20 17
-16 -17 20
-21 18
-21 19
-18 -19 21
-22 20
-22 21
-20 -21 22
-23 -15
-23 22
15 -22 23
-24 -6
-24 7
6 -7 24
-25 6
-25 -7
-6 7 25
-26 -24
-26 -25
24 25 26
-27 6
-27 7
-6 -7 27
-28 -6
-28 -26
6 26 28
-29 6
-29 26
-6 -26 29
-30 -28
-30 -29
28 29 30
-31 6
-31 -26
-6 26 31
-32 -27
-32 -31
27 31 32
-33 -7
-33 8
7 -8 33
-34 7
-34 -8
-7 8 34
-35 -33
-35 -34
33 34 35
-36 7
-36 8
-7 -8 36
-37 32
-37 -35
-32 35 37
-38 -32
-38 35
32 -35 38
-39 -37
-39 -38
37 38 39
-40 -32
-40 -35
32 35 40
-41 -36
-41 -40
36 40 41
-42 -8
-42 9
8 -9 42
-43 8
-43 -9
-8 9 43
-44 -42
-44 -43
42 43 44
-45 8
-45 9
-8 -9 45
-46 41
-46 -44
-41 44 46
-47 -41
-47 44
41 -44 47
-48 -46
-48 -47
46 47 48
-49 -41
-49 -44
41 44 49
-50 -45
-50 -49
45 49 50
-51 -9
-51 10
9 -10 51
-52 9
-52 -10
-9 10 52
-53 -51
-53 -52
51 52 53
-54 9
-54 10
-9 -10 54
-55 50
-55 -53
-50 53 55
-56 -50
-56 53
50 -53 56
-57 -55
-57 -56
55 56 57
-58 -50
-58 -53
50 53 58
-59 -54
-59 -58
54 58 59
-60 -10
-60 11
10 -11 60
-61 10
-61 -11
-10 11 61
-62 -60
-62 -61
60 61 62
-63 10
-63 11
-10 -11 63
-64 59
-64 -62
-59 62 64
-65 -59
-65 62
59 -62 65
-66 -64
-66 -65
64 65 66
-67 -59
-67 -62
59 62 67
-68 -63
-68 -67
63 67 68
-69 -11
-69 12
11 -12 69
-70 11
-70 -12
-11 12 70
-71 -69
-71 -70
69 70 71
-72 11
-72 12
-11 -12 72
-73 68
-73 -71
-68 71 73
-74 -68
-74 71
68 -71 74
-75 -73
-75 -74
73 74 75
-76 -68
-76 -71
68 71 76
-77 -72
-77 -76
72 76 77
-78 -12
-78 13
12 -13 78
-79 12
-79 -13
-12 13 79
-80 -78
-80 -79
78 79 80
-81 12
-81 13
-12 -13 81
-82 77
-82 -80
-77 80 82
-83 -77
-83 80
77 -80 83
-84 -82
-84 -83
82 83 84
-85 -77
-85 -80
77 80 85
-86 -81
-86 -85
81 85 86
-87 -13
-87 14
13 -14 87
-88 13
-88 -14
-13 14 88
-89 -87
-89 -88
87 88 89
-90 13
-90 14
-13 -14 90
-91 86
-91 -89
-86 89 91
-92 -86
-92 89
86 -89 92
-93 -91
-93 -92
91 92 93
-94 -86
-94 -89
86 89 94
-95 -90
-95 -94
90 94 95
-96 -14
-96 15
14 -15 96
-97 14
-97 -15
-14 15 97
-98 -96
-98 -97
96 97 98
-99 14
-99 15
-14 -15 99
-100 95
-100 -98
-95 98 100
-101 -95
-101 98
95 -98 101
-102 -100
-102 -101
100 101 102
-103 -95
-103 -98
95 98 103
-104 -99
-104 -103
99 103 104
-105 6
-105 -30
-6 30 105
-106 -6
-106 8
6 -8 106
-107 -105
-107 -106
105 106 107
-108 6
-108 -39
-6 39 108
-109 -6
-109 9
6 -9 109
-110 -108
-110 -109
108 109 110
-111 6
-111 -48
-6 48 111
-112 -6
-112 10
6 -10 112
-113 -111
-113 -112
111 112 113
-114 6
-114 -57
-6 57 114
-115 -6
-115 11
6 -11 115
-116 -114
-116 -115
114 115 116
-117 6
-117 -66
-6 66 117
-118 -6
-118 12
6 -12 118
-119 -117
-119 -118
117 118 119
-120 6
-120 -75
-6 75 120
-121 -6
-121 13
6 -13 121
-122 -120
-122 -121
120 121 122
-123 6
-123 -84
-6 84 123
-124 -6
-124 14
6 -14 124
-125 -123
-125 -124
123 124 125
-126 6
-126 -93
-6 93 126
-127 -6
-127 15
6 -15 127
-128 -126
-128 -127
126 127 128
-129 6
-129 -102
-6 102 129
-130 1
-130 23
-1 -23 130
-131 -23
-131 24
23 -24 131
-132 -130
-132 -131
130 131 132
-133 2
-133 23
-2 -23 133
-134 -23
-134 -107
23 107 134
-135 -133
-135 -134
133 134 135
-136 3
-136 23
-3 -23 136
-137 -23
-137 -110
23 110 137
-138 -136
-138 -137
136 137 138
-139 4
-139 23
-4 -23 139
-140 -23
-140 -113
23 113 140
-141 -139
-141 -140
139 140 141
-142 5
-142 23
-5 -23 142
-143 -23
-143 -116
23 116 143
-144 -142
-144 -143
142 143 144
-145 -23
-145 -119
23 119 145
-146 -23
-146 -122
23 122 146
-147 -23
-147 -125
23 125 147
-148 -23
-148 -128
23 128 148
-149 -23
-149 129
23 -129 149
-150 -15
-150 104
15 -104 150
-151 6
-151 -150
-6 150 151
151
